31.52 117.17
39.55 116.24
29.59 106.54
26.05 119.18
36.04 103.51
23.08 113.14
22.48 108.19
26.35 106.42
20.02 110.20
38.02 114.30
34.46 113.40
45.44 126.36
30.35 114.17
28.12 112.59
43.54 125.19
32.03 118.46
28.40 115.55
41.48 123.25
40.48 111.41
38.27 106.16
36.38 101.48
36.40 117.00
37.54 112.33
34.17 108.57
31.14 121.29
30.40 104.04
39.02 117.12
29.39 91.08
43.45 87.36
25.04 102.42
30.16 120.10
21.23 115.12
21.33 115.07
25.03 121.30